50 5
968
1452
1452
242
242
1936
1210
1210
2178
1936
726
1452
1452
968
484
1452
242
1936
1452
1452
1452
484
726
726
726
1694
968
968
726
1694
1694
1452
1694
1694
2178
1210
1694
1210
1936
484
1694
1452
2420
2420
1210
1210
1694
1452
2178
242
8304
7124
5486
11697
33213
